<number of tasks>
50

<cycle time>
1000

<order strength>
0.198


<task times>
1 21
2 257
3 183
4 59
5 84
6 114
7 241
8 49
9 113
10 107
11 51
12 143
13 204
14 21
15 126
16 131
17 31
18 85
19 140
20 90
21 133
22 116
23 58
24 188
25 208
26 46
27 63
28 83
29 105
30 68
31 214
32 180
33 144
34 167
35 117
36 125
37 38
38 68
39 99
40 181
41 77
42 199
43 23
44 132
45 212
46 265
47 79
48 73
49 32
50 216

<precedence relations>
1,29
2,29
3,29
4,9
5,10
5,15
6,20
6,47
7,12
7,14
7,15
8,11
8,13
8,25
8,42
9,18
10,16
11,17
13,22
15,19
15,20
15,21
16,23
17,24
18,27
19,48
20,25
21,26
21,28
23,29
24,31
25,30
27,32
29,33
29,34
29,35
29,36
29,37
30,38
33,39
33,41
37,42
37,43
38,40
39,44
40,45
41,46
42,48
42,49
42,50
43,47

<end>
